NAME : rnd22_50.tsp
TYPE : TSP
DIMENSION : 50
EDGE_WEIGHT_TYPE : EUC_2D
NODE_COORD_SECTION
1 477 723
2 749 268
3 407 596
4 734 8
5 641 204
6 394 542
7 707 704
8 108 295
9 546 477
10 507 184
11 394 513
12 687 467
13 519 934
14 926 349
15 10 842
16 767 935
17 577 408
18 261 283
19 307 256
20 119 293
21 887 197
22 95 656
23 130 667
24 585 576
25 820 348
26 88 419
27 279 605
28 274 476
29 888 613
30 627 880
31 962 224
32 343 735
33 534 745
34 731 376
35 698 673
36 11 103
37 316 310
38 999 928
39 961 589
40 244 597
41 824 758
42 411 370
43 250 939
44 818 777
45 276 214
46 866 42
47 148 647
48 262 178
49 588 932
50 635 818
